sat
((husband_name "aaaaaa") (wife_name "aaaaaa") (husband_email "aaaaaa@gmail.com") (wife_email "aaaaaa@gmail.com") (husband_marital_status "Married") (wife_marital_status "Married") (husband_gender "Male") (wife_gender "Female") (husband_age 19) (wife_age 19))
cvc5::CONSTANT = { String type: 8, integer type: 2 }
cvc5::TERM = { EQUAL: 8, GT: 4, OR: 1, REGEXP_RANGE: 2, REGEXP_STAR: 2, STRING_CONCAT: 2, STRING_IN_REGEXP: 2, STRING_LENGTH: 2 }
cvc5::VARIABLE = { Boolean type: 1 }
driver::filename = civilstatus.smt2
global::totalTime = 67ms
theory::arith::inferencesConflict = { ARITH_CONF_EQ: 2, ARITH_CONF_SIMPLEX: 4 }
theory::arith::inferencesLemma = { ARITH_ROW_IMPL: 2, ARITH_UNATE: 4 }
theory::strings::inferencesLemma = { STRINGS_CODE_INJ: 42, STRINGS_CODE_PROXY: 6, STRINGS_EXTF: 4, STRINGS_LEN_NORM: 6, STRINGS_REGISTER_TERM: 36, STRINGS_REGISTER_TERM_ATOMIC: 20, STRINGS_RE_UNFOLD_POS: 6 }
